File : Instances/p66
Used 67s
33636

0 0 1 0 0 0 0 1 1 0 1 0 0 0 0 0 1 0 0 1 0 0 0 0 0 0 0 1 1 0 
7 19 2 27 2 7 16 27 27 28 19 28 10 10 28 7 10 10 16 27 27 16 2 2 10 27 27 28 19 2 19 19 19 16 27 19 8 8 16 16 7 8 28 19 8 19 8 16 19 10 27 16 2 16 8 19 7 8 27 7 19 27 7 8 8 28 2 28 28 7 7 7 19 8 10 10 10 10 8 16 10 2 8 7 19 10 19 2 27 7 28 19 7 7 2 8 27 28 2 28 28 16 7 7 19 2 19 27 27 8 19 19 27 28 28 8 28 7 2 8 8 7 28 19 19 16 2 28 8 28 28 16 7 10 10 8 8 8 28 10 7 27 28 7 7 2 16 16 27 7 27 27 10 27 8 28 2 16 8 8 10 27 10 2 10 27 2 19 8 2 2 8 19 10 8 2 27 10 19 10 2 16 2 19 28 8 28 10 27 16 2 2 19 19 7 28 7 2 10 19 
